20622
20622
20622
20622
20622
20201.4
19985.3
19985.3
19985.3
19985.3
19985.3
19985.3
19714.9
19551.6
19551.6
19551.6
19467.3
19454.5
19454.5
19454.5
19405.5
19202.4
19202.4
19202.4
19202.4
19202.4
19202.4
19202.4
19202.4
19202.4
19059.2
19059.2
19059.2
19059.2
19059.2
19059.2
19059.2
18911.1
18911.1
18911.1
18899.5
18899.5
18899.5
18899.5
18899.5
18899.5
18899.5
18899.5
18899.5
18899.5
18740.8
18729.3
18720.4
18720.4
18720.4
18720.4
18603.2
18603.2
18603.2
18603.2
18603.2
18603.2
18603.2
18428.6
18428.6
18228
18096.2
18096.2
18096.2
18096.2
18096.2
18096.2
18096.2
18079
18079
18079
18079
18079
18079
17935.8
17935.8
17935.8
17935.8
17935.8
17847.2
17847.2
17847.2
17704.9
17704.9
17591.8
17591.8
17591.8
17410.3
17410.3
17410.3
17410.3
17410.3
17410.3
17410.3
17410.3
